(set-info :smt-lib-version 2.6)
(set-logic QF_S)
(set-info :source |
Generated by: Hung-En Wang, Tzung-Lin Tsai, Chun-Han Lin, Fang Yu, and Jie-Hong R. Jiang
Generated on: 2019-02-28
Generator: Stranger
Application: Security analysis of string manipulating web applications
Target solver: CVC4, Norn, Z3-str2
Publication:
Hung-En Wang, Tzung-Lin Tsai, Chun-Han Lin, Fang Yu, Jie-Hong R. Jiang:
String Analysis via Automata Manipulation with Logic Circuit Representation. CAV (1) 2016: 241-260.
|)
(set-info :license "https://creativecommons.org/licenses/by/4.0/")
(set-info :category "industrial")
(set-info :status unknown)

(declare-fun sigmaStar_6 () String)
(declare-fun sigmaStar_7 () String)
(declare-fun literal_4 () String)
(declare-fun x_8 () String)
(declare-fun epsilon () String)
(declare-fun literal_3 () String)
(declare-fun literal_0 () String)
(declare-fun x_9 () String)
(declare-fun literal_10 () String)
(declare-fun x_11 () String)
(declare-fun x_12 () String)
(declare-fun x_13 () String)
(declare-fun literal_14 () String)
(declare-fun x_15 () String)
(assert (= literal_4 "\u{2f}\u{6c}\u{61}\u{6e}\u{67}\u{2f}"))
(assert (= epsilon ""))
(assert (= literal_3 ""))
(assert (= literal_0 ""))
(assert (or (= x_8 epsilon) (= x_8 literal_3) (= x_8 literal_0)))
(assert (= x_9 (str.++ literal_4 x_8)))
(assert (= literal_10 "\u{2f}"))
(assert (= x_11 (str.++ x_9 literal_10)))
(assert (or (= x_12 epsilon) (= x_12 literal_3) (= x_12 literal_0)))
(assert (= x_13 (str.++ x_11 x_12)))
(assert (= literal_14 "\u{2e}\u{6d}\u{64}\u{35}"))
(assert (= x_15 (str.++ x_13 literal_14)))
(assert (str.in_re x_15 (re.++ (re.* re.allchar) (re.++ (str.to_re "\u{2f}\u{65}\u{76}\u{69}\u{6c}") (re.* re.allchar)))))
(check-sat)
(exit)
